
  22    0


   0   9 2 3 4 7 17 18 19 20 21 
   6   5 16 15 14 6 5 
   2   4 13 12 11 9 
   2   3 10 9 8 
   9   2 10 8 
   3   1 9 
   7   1 8 
   6   1 22
   3   1 22
   7   1 22
   5   1 22
   7   1 22
   2   1 22
   5   1 22
   3   1 22
   6   1 22
   5   1 22
  10   1 22
   7   1 22
   4   1 22
   4   1 22
   0   0 
